RobustCbss/GLKH-1.1/TMP/mtspf.pid4582.atsp
NAME : mtspf.pid4582.gtsp
TYPE : ATSP
DIMENSION : 45
EDGE_WEIGHT_TYPE : EXPLICIT
EDGE_WEIGHT_FORMAT : FULL_MATRIX
EDGE_WEIGHT_SECTION
999999 5368709 5368709 5368709 5368709 5368769 5368768 5368767 5368768 5368756 5368755 5368754 5368755 5368731 5368732 5368733 5368732 5368733 5368734 5368735 5368734 5368743 5368744 5368743 5368742 5368801 5368802 5368803 5368802 5368757 5368758 5368757 5368756 5368745 5368746 5368745 5368744 5368776 5368777 5368778 5368777 5368778 5368779 5368780 5368779 
5368709 999999 5368709 5368709 5368709 5368715 5368714 5368715 5368716 5368808 5368807 5368806 5368807 5368751 5368752 5368753 5368752 5368785 5368786 5368787 5368786 5368795 5368796 5368795 5368794 5368751 5368752 5368753 5368752 5368809 5368810 5368809 5368808 5368797 5368798 5368797 5368796 5368726 5368727 5368728 5368727 5368728 5368729 5368730 5368729 
5368709 5368709 999999 5368709 5368709 5368774 5368773 5368772 5368773 5368749 5368748 5368747 5368748 5368736 5368737 5368738 5368737 5368726 5368727 5368728 5368727 5368736 5368737 5368736 5368735 5368806 5368807 5368808 5368807 5368750 5368751 5368750 5368749 5368738 5368739 5368738 5368737 5368781 5368782 5368783 5368782 5368783 5368784 5368785 5368784 
5368709 5368709 5368709 999999 5368709 5368743 5368742 5368741 5368742 5368830 5368829 5368828 5368829 5368773 5368774 5368775 5368774 5368807 5368808 5368809 5368808 5368817 5368818 5368817 5368816 5368727 5368728 5368729 5368728 5368831 5368832 5368831 5368830 5368819 5368820 5368819 5368818 5368728 5368729 5368730 5368729 5368728 5368729 5368730 5368729 
5368709 5368709 5368709 5368709 999999 5368823 5368822 5368821 5368822 5368778 5368777 5368776 5368777 5368785 5368786 5368787 5368786 5368755 5368756 5368757 5368756 5368765 5368766 5368765 5368764 5368855 5368856 5368857 5368856 5368779 5368780 5368779 5368778 5368733 5368732 5368731 5368732 5368830 5368831 5368832 5368831 5368832 5368833 5368834 5368833 
5368709 5368709 5368709 5368709 5368709 999999 0 10737418 10737418 5368811 5368810 5368809 5368810 5368754 5368755 5368756 5368755 5368788 5368789 5368790 5368789 5368798 5368799 5368798 5368797 5368756 5368757 5368758 5368757 5368812 5368813 5368812 5368811 5368800 5368801 5368800 5368799 5368731 5368732 5368733 5368732 5368733 5368734 5368735 5368734 
5368709 5368709 5368709 5368709 5368709 10737418 999999 0 10737418 5368812 5368811 5368810 5368811 5368755 5368756 5368757 5368756 5368789 5368790 5368791 5368790 5368799 5368800 5368799 5368798 5368757 5368758 5368759 5368758 5368813 5368814 5368813 5368812 5368801 5368802 5368801 5368800 5368732 5368733 5368734 5368733 5368734 5368735 5368736 5368735 
5368709 5368709 5368709 5368709 5368709 10737418 10737418 999999 0 5368811 5368810 5368809 5368810 5368754 5368755 5368756 5368755 5368788 5368789 5368790 5368789 5368798 5368799 5368798 5368797 5368756 5368757 5368758 5368757 5368812 5368813 5368812 5368811 5368800 5368801 5368800 5368799 5368731 5368732 5368733 5368732 5368733 5368734 5368735 5368734 
5368709 5368709 5368709 5368709 5368709 0 10737418 10737418 999999 5368810 5368809 5368808 5368809 5368753 5368754 5368755 5368754 5368787 5368788 5368789 5368788 5368797 5368798 5368797 5368796 5368755 5368756 5368757 5368756 5368811 5368812 5368811 5368810 5368799 5368800 5368799 5368798 5368730 5368731 5368732 5368731 5368732 5368733 5368734 5368733 
5368709 5368709 5368709 5368709 5368709 5368811 5368810 5368809 5368810 999999 0 10737418 10737418 5368773 5368774 5368775 5368774 5368739 5368740 5368741 5368740 5368723 5368722 5368723 5368724 5368843 5368844 5368845 5368844 5368747 5368748 5368747 5368746 5368755 5368756 5368755 5368754 5368818 5368819 5368820 5368819 5368820 5368821 5368822 5368821 
5368709 5368709 5368709 5368709 5368709 5368812 5368811 5368810 5368811 10737418 999999 0 10737418 5368774 5368775 5368776 5368775 5368740 5368741 5368742 5368741 5368724 5368723 5368724 5368725 5368844 5368845 5368846 5368845 5368748 5368749 5368748 5368747 5368756 5368757 5368756 5368755 5368819 5368820 5368821 5368820 5368821 5368822 5368823 5368822 
5368709 5368709 5368709 5368709 5368709 5368811 5368810 5368809 5368810 10737418 10737418 999999 0 5368773 5368774 5368775 5368774 5368739 5368740 5368741 5368740 5368723 5368722 5368723 5368724 5368843 5368844 5368845 5368844 5368747 5368748 5368747 5368746 5368755 5368756 5368755 5368754 5368818 5368819 5368820 5368819 5368820 5368821 5368822 5368821 
5368709 5368709 5368709 5368709 5368709 5368810 5368809 5368808 5368809 0 10737418 10737418 999999 5368772 5368773 5368774 5368773 5368738 5368739 5368740 5368739 5368722 5368721 5368722 5368723 5368842 5368843 5368844 5368843 5368746 5368747 5368746 5368745 5368754 5368755 5368754 5368753 5368817 5368818 5368819 5368818 5368819 5368820 5368821 5368820 
5368709 5368709 5368709 5368709 5368709 5368756 5368755 5368754 5368755 5368775 5368774 5368773 5368774 999999 0 10737418 10737418 5368752 5368753 5368754 5368753 5368762 5368763 5368762 5368761 5368788 5368789 5368790 5368789 5368776 5368777 5368776 5368775 5368764 5368765 5368764 5368763 5368763 5368764 5368765 5368764 5368765 5368766 5368767 5368766 
5368709 5368709 5368709 5368709 5368709 5368755 5368754 5368753 5368754 5368774 5368773 5368772 5368773 10737418 999999 0 10737418 5368751 5368752 5368753 5368752 5368761 5368762 5368761 5368760 5368787 5368788 5368789 5368788 5368775 5368776 5368775 5368774 5368763 5368764 5368763 5368762 5368762 5368763 5368764 5368763 5368764 5368765 5368766 5368765 
5368709 5368709 5368709 5368709 5368709 5368756 5368755 5368754 5368755 5368775 5368774 5368773 5368774 10737418 10737418 999999 0 5368752 5368753 5368754 5368753 5368762 5368763 5368762 5368761 5368788 5368789 5368790 5368789 5368776 5368777 5368776 5368775 5368764 5368765 5368764 5368763 5368763 5368764 5368765 5368764 5368765 5368766 5368767 5368766 
5368709 5368709 5368709 5368709 5368709 5368757 5368756 5368755 5368756 5368776 5368775 5368774 5368775 0 10737418 10737418 999999 5368753 5368754 5368755 5368754 5368763 5368764 5368763 5368762 5368789 5368790 5368791 5368790 5368777 5368778 5368777 5368776 5368765 5368766 5368765 5368764 5368764 5368765 5368766 5368765 5368766 5368767 5368768 5368767 
5368709 5368709 5368709 5368709 5368709 5368790 5368789 5368788 5368789 5368741 5368740 5368739 5368740 5368752 5368753 5368754 5368753 999999 0 10737418 10737418 5368728 5368729 5368728 5368727 5368822 5368823 5368824 5368823 5368740 5368741 5368740 5368739 5368734 5368735 5368734 5368733 5368797 5368798 5368799 5368798 5368799 5368800 5368801 5368800 
5368709 5368709 5368709 5368709 5368709 5368789 5368788 5368787 5368788 5368740 5368739 5368738 5368739 5368751 5368752 5368753 5368752 10737418 999999 0 10737418 5368727 5368728 5368727 5368726 5368821 5368822 5368823 5368822 5368739 5368740 5368739 5368738 5368733 5368734 5368733 5368732 5368796 5368797 5368798 5368797 5368798 5368799 5368800 5368799 
5368709 5368709 5368709 5368709 5368709 5368790 5368789 5368788 5368789 5368741 5368740 5368739 5368740 5368752 5368753 5368754 5368753 10737418 10737418 999999 0 5368728 5368729 5368728 5368727 5368822 5368823 5368824 5368823 5368740 5368741 5368740 5368739 5368734 5368735 5368734 5368733 5368797 5368798 5368799 5368798 5368799 5368800 5368801 5368800 
5368709 5368709 5368709 5368709 5368709 5368791 5368790 5368789 5368790 5368742 5368741 5368740 5368741 5368753 5368754 5368755 5368754 0 10737418 10737418 999999 5368729 5368730 5368729 5368728 5368823 5368824 5368825 5368824 5368741 5368742 5368741 5368740 5368735 5368736 5368735 5368734 5368798 5368799 5368800 5368799 5368800 5368801 5368802 5368801 
5368709 5368709 5368709 5368709 5368709 5368798 5368797 5368796 5368797 5368725 5368724 5368723 5368724 5368760 5368761 5368762 5368761 5368726 5368727 5368728 5368727 999999 0 10737418 10737418 5368830 5368831 5368832 5368831 5368734 5368735 5368734 5368733 5368742 5368743 5368742 5368741 5368805 5368806 5368807 5368806 5368807 5368808 5368809 5368808 
5368709 5368709 5368709 5368709 5368709 5368799 5368798 5368797 5368798 5368724 5368723 5368722 5368723 5368761 5368762 5368763 5368762 5368727 5368728 5368729 5368728 10737418 999999 0 10737418 5368831 5368832 5368833 5368832 5368735 5368736 5368735 5368734 5368743 5368744 5368743 5368742 5368806 5368807 5368808 5368807 5368808 5368809 5368810 5368809 
5368709 5368709 5368709 5368709 5368709 5368800 5368799 5368798 5368799 5368723 5368722 5368721 5368722 5368762 5368763 5368764 5368763 5368728 5368729 5368730 5368729 10737418 10737418 999999 0 5368832 5368833 5368834 5368833 5368736 5368737 5368736 5368735 5368744 5368745 5368744 5368743 5368807 5368808 5368809 5368808 5368809 5368810 5368811 5368810 
5368709 5368709 5368709 5368709 5368709 5368799 5368798 5368797 5368798 5368724 5368723 5368722 5368723 5368761 5368762 5368763 5368762 5368727 5368728 5368729 5368728 0 10737418 10737418 999999 5368831 5368832 5368833 5368832 5368735 5368736 5368735 5368734 5368743 5368744 5368743 5368742 5368806 5368807 5368808 5368807 5368808 5368809 5368810 5368809 
5368709 5368709 5368709 5368709 5368709 5368758 5368757 5368756 5368757 5368845 5368844 5368843 5368844 5368788 5368789 5368790 5368789 5368822 5368823 5368824 5368823 5368832 5368833 5368832 5368831 999999 0 10737418 10737418 5368846 5368847 5368846 5368845 5368834 5368835 5368834 5368833 5368743 5368744 5368745 5368744 5368745 5368746 5368747 5368746 
5368709 5368709 5368709 5368709 5368709 5368757 5368756 5368755 5368756 5368844 5368843 5368842 5368843 5368787 5368788 5368789 5368788 5368821 5368822 5368823 5368822 5368831 5368832 5368831 5368830 10737418 999999 0 10737418 5368845 5368846 5368845 5368844 5368833 5368834 5368833 5368832 5368742 5368743 5368744 5368743 5368744 5368745 5368746 5368745 
5368709 5368709 5368709 5368709 5368709 5368758 5368757 5368756 5368757 5368845 5368844 5368843 5368844 5368788 5368789 5368790 5368789 5368822 5368823 5368824 5368823 5368832 5368833 5368832 5368831 10737418 10737418 999999 0 5368846 5368847 5368846 5368845 5368834 5368835 5368834 5368833 5368743 5368744 5368745 5368744 5368745 5368746 5368747 5368746 
5368709 5368709 5368709 5368709 5368709 5368759 5368758 5368757 5368758 5368846 5368845 5368844 5368845 5368789 5368790 5368791 5368790 5368823 5368824 5368825 5368824 5368833 5368834 5368833 5368832 0 10737418 10737418 999999 5368847 5368848 5368847 5368846 5368835 5368836 5368835 5368834 5368744 5368745 5368746 5368745 5368746 5368747 5368748 5368747 
5368709 5368709 5368709 5368709 5368709 5368812 5368811 5368810 5368811 5368747 5368746 5368745 5368746 5368774 5368775 5368776 5368775 5368738 5368739 5368740 5368739 5368734 5368735 5368734 5368733 5368844 5368845 5368846 5368845 999999 0 10737418 10737418 5368756 5368757 5368756 5368755 5368819 5368820 5368821 5368820 5368821 5368822 5368823 5368822 
5368709 5368709 5368709 5368709 5368709 5368813 5368812 5368811 5368812 5368748 5368747 5368746 5368747 5368775 5368776 5368777 5368776 5368739 5368740 5368741 5368740 5368735 5368736 5368735 5368734 5368845 5368846 5368847 5368846 10737418 999999 0 10737418 5368757 5368758 5368757 5368756 5368820 5368821 5368822 5368821 5368822 5368823 5368824 5368823 
5368709 5368709 5368709 5368709 5368709 5368814 5368813 5368812 5368813 5368749 5368748 5368747 5368748 5368776 5368777 5368778 5368777 5368740 5368741 5368742 5368741 5368736 5368737 5368736 5368735 5368846 5368847 5368848 5368847 10737418 10737418 999999 0 5368758 5368759 5368758 5368757 5368821 5368822 5368823 5368822 5368823 5368824 5368825 5368824 
5368709 5368709 5368709 5368709 5368709 5368813 5368812 5368811 5368812 5368748 5368747 5368746 5368747 5368775 5368776 5368777 5368776 5368739 5368740 5368741 5368740 5368735 5368736 5368735 5368734 5368845 5368846 5368847 5368846 0 10737418 10737418 999999 5368757 5368758 5368757 5368756 5368820 5368821 5368822 5368821 5368822 5368823 5368824 5368823 
5368709 5368709 5368709 5368709 5368709 5368800 5368799 5368798 5368799 5368755 5368754 5368753 5368754 5368762 5368763 5368764 5368763 5368732 5368733 5368734 5368733 5368742 5368743 5368742 5368741 5368832 5368833 5368834 5368833 5368756 5368757 5368756 5368755 999999 0 10737418 10737418 5368807 5368808 5368809 5368808 5368809 5368810 5368811 5368810 
5368709 5368709 5368709 5368709 5368709 5368801 5368800 5368799 5368800 5368756 5368755 5368754 5368755 5368763 5368764 5368765 5368764 5368733 5368734 5368735 5368734 5368743 5368744 5368743 5368742 5368833 5368834 5368835 5368834 5368757 5368758 5368757 5368756 10737418 999999 0 10737418 5368808 5368809 5368810 5368809 5368810 5368811 5368812 5368811 
5368709 5368709 5368709 5368709 5368709 5368802 5368801 5368800 5368801 5368757 5368756 5368755 5368756 5368764 5368765 5368766 5368765 5368734 5368735 5368736 5368735 5368744 5368745 5368744 5368743 5368834 5368835 5368836 5368835 5368758 5368759 5368758 5368757 10737418 10737418 999999 0 5368809 5368810 5368811 5368810 5368811 5368812 5368813 5368812 
5368709 5368709 5368709 5368709 5368709 5368801 5368800 5368799 5368800 5368756 5368755 5368754 5368755 5368763 5368764 5368765 5368764 5368733 5368734 5368735 5368734 5368743 5368744 5368743 5368742 5368833 5368834 5368835 5368834 5368757 5368758 5368757 5368756 0 10737418 10737418 999999 5368808 5368809 5368810 5368809 5368810 5368811 5368812 5368811 
5368709 5368709 5368709 5368709 5368709 5368733 5368732 5368731 5368732 5368820 5368819 5368818 5368819 5368763 5368764 5368765 5368764 5368797 5368798 5368799 5368798 5368807 5368808 5368807 5368806 5368743 5368744 5368745 5368744 5368821 5368822 5368821 5368820 5368809 5368810 5368809 5368808 999999 0 10737418 10737418 5368714 5368715 5368714 5368713 
5368709 5368709 5368709 5368709 5368709 5368732 5368731 5368730 5368731 5368819 5368818 5368817 5368818 5368762 5368763 5368764 5368763 5368796 5368797 5368798 5368797 5368806 5368807 5368806 5368805 5368742 5368743 5368744 5368743 5368820 5368821 5368820 5368819 5368808 5368809 5368808 5368807 10737418 999999 0 10737418 5368713 5368714 5368715 5368714 
5368709 5368709 5368709 5368709 5368709 5368733 5368732 5368731 5368732 5368820 5368819 5368818 5368819 5368763 5368764 5368765 5368764 5368797 5368798 5368799 5368798 5368807 5368808 5368807 5368806 5368743 5368744 5368745 5368744 5368821 5368822 5368821 5368820 5368809 5368810 5368809 5368808 10737418 10737418 999999 0 5368712 5368713 5368714 5368713 
5368709 5368709 5368709 5368709 5368709 5368734 5368733 5368732 5368733 5368821 5368820 5368819 5368820 5368764 5368765 5368766 5368765 5368798 5368799 5368800 5368799 5368808 5368809 5368808 5368807 5368744 5368745 5368746 5368745 5368822 5368823 5368822 5368821 5368810 5368811 5368810 5368809 0 10737418 10737418 999999 5368713 5368714 5368713 5368712 
5368709 5368709 5368709 5368709 5368709 5368735 5368734 5368733 5368734 5368822 5368821 5368820 5368821 5368765 5368766 5368767 5368766 5368799 5368800 5368801 5368800 5368809 5368810 5368809 5368808 5368745 5368746 5368747 5368746 5368823 5368824 5368823 5368822 5368811 5368812 5368811 5368810 5368714 5368713 5368712 5368713 999999 0 10737418 10737418 
5368709 5368709 5368709 5368709 5368709 5368734 5368733 5368732 5368733 5368821 5368820 5368819 5368820 5368764 5368765 5368766 5368765 5368798 5368799 5368800 5368799 5368808 5368809 5368808 5368807 5368744 5368745 5368746 5368745 5368822 5368823 5368822 5368821 5368810 5368811 5368810 5368809 5368713 5368712 5368713 5368714 10737418 999999 0 10737418 
5368709 5368709 5368709 5368709 5368709 5368735 5368734 5368733 5368734 5368822 5368821 5368820 5368821 5368765 5368766 5368767 5368766 5368799 5368800 5368801 5368800 5368809 5368810 5368809 5368808 5368745 5368746 5368747 5368746 5368823 5368824 5368823 5368822 5368811 5368812 5368811 5368810 5368714 5368713 5368714 5368715 10737418 10737418 999999 0 
5368709 5368709 5368709 5368709 5368709 5368736 5368735 5368734 5368735 5368823 5368822 5368821 5368822 5368766 5368767 5368768 5368767 5368800 5368801 5368802 5368801 5368810 5368811 5368810 5368809 5368746 5368747 5368748 5368747 5368824 5368825 5368824 5368823 5368812 5368813 5368812 5368811 5368715 5368714 5368713 5368714 0 10737418 10737418 999999 
EOF
