pRobustCbss/GLKH-1.1/TMP/mtspf.pid4582.tour
NAME : mtspf.pid4582.gtsp.80530813.tour
COMMENT : Length = 80530813
COMMENT : Found by LKH [Keld Helsgaun] Thu Feb  6 18:13:55 2025
TYPE : TOUR
DIMENSION : 45
TOUR_SECTION
1
14
15
16
17
4
26
27
28
29
2
7
8
9
6
38
39
40
41
45
42
43
44
3
21
18
19
20
31
32
33
30
25
22
23
24
12
13
10
11
5
36
37
34
35
-1
EOF
